50

100 17 300
99 14 298
97 8 291
97 16 297
97 12 294
93 11 280
93 27 292
92 13 278
92 26 292
88 6 291
83 8 293
83 20 295
79 12 258
76 19 245
76 7 252
75 19 277
72 8 249
71 20 269
70 14 225
69 11 247
67 18 274
66 20 218
63 12 259
62 11 216
62 7 254
61 6 217
61 9 213
51 4 200
50 2 261
44 1 205
44 9 166
43 2 228
43 1 192
40 7 287
39 5 169
37 3 237
37 4 274
30 3 141
23 6 237
20 2 295
19 6 152
18 3 266
17 3 72
15 2 229
14 2 73
13 4 87
13 1 181
12 3 85
8 3 159
8 3 295
